c description: There is a graph of 9 vertices with a 3-clique and a 3-coloring
c generator: CNFgen (0.9.0)
c copyright: (C) 2012-2020 Massimo Lauria <massimo.lauria@uniroma1.it>
c url: https://massimolauria.net/cnfgen
c
p cnf 90 498
-37 -38 0
-37 -39 0
-37 -40 0
-37 -41 0
-37 -42 0
-37 -43 0
-37 -44 0
-37 -45 0
-38 -39 0
-38 -40 0
-38 -41 0
-38 -42 0
-38 -43 0
-38 -44 0
-38 -45 0
-39 -40 0
-39 -41 0
-39 -42 0
-39 -43 0
-39 -44 0
-39 -45 0
-40 -41 0
-40 -42 0
-40 -43 0
-40 -44 0
-40 -45 0
-41 -42 0
-41 -43 0
-41 -44 0
-41 -45 0
-42 -43 0
-42 -44 0
-42 -45 0
-43 -44 0
-43 -45 0
-44 -45 0
37 38 39 40 41 42 43 44 45 0
-46 -47 0
-46 -48 0
-46 -49 0
-46 -50 0
-46 -51 0
-46 -52 0
-46 -53 0
-46 -54 0
-47 -48 0
-47 -49 0
-47 -50 0
-47 -51 0
-47 -52 0
-47 -53 0
-47 -54 0
-48 -49 0
-48 -50 0
-48 -51 0
-48 -52 0
-48 -53 0
-48 -54 0
-49 -50 0
-49 -51 0
-49 -52 0
-49 -53 0
-49 -54 0
-50 -51 0
-50 -52 0
-50 -53 0
-50 -54 0
-51 -52 0
-51 -53 0
-51 -54 0
-52 -53 0
-52 -54 0
-53 -54 0
46 47 48 49 50 51 52 53 54 0
-55 -56 0
-55 -57 0
-55 -58 0
-55 -59 0
-55 -60 0
-55 -61 0
-55 -62 0
-55 -63 0
-56 -57 0
-56 -58 0
-56 -59 0
-56 -60 0
-56 -61 0
-56 -62 0
-56 -63 0
-57 -58 0
-57 -59 0
-57 -60 0
-57 -61 0
-57 -62 0
-57 -63 0
-58 -59 0
-58 -60 0
-58 -61 0
-58 -62 0
-58 -63 0
-59 -60 0
-59 -61 0
-59 -62 0
-59 -63 0
-60 -61 0
-60 -62 0
-60 -63 0
-61 -62 0
-61 -63 0
-62 -63 0
55 56 57 58 59 60 61 62 63 0
-37 -46 0
-37 -55 0
-46 -55 0
-38 -47 0
-38 -56 0
-47 -56 0
-39 -48 0
-39 -57 0
-48 -57 0
-40 -49 0
-40 -58 0
-49 -58 0
-41 -50 0
-41 -59 0
-50 -59 0
-42 -51 0
-42 -60 0
-51 -60 0
-43 -52 0
-43 -61 0
-52 -61 0
-44 -53 0
-44 -62 0
-53 -62 0
-45 -54 0
-45 -63 0
-54 -63 0
1 -37 -47 0
1 -37 -56 0
1 -46 -38 0
1 -46 -56 0
1 -55 -38 0
1 -55 -47 0
2 -37 -48 0
2 -37 -57 0
2 -46 -39 0
2 -46 -57 0
2 -55 -39 0
2 -55 -48 0
3 -37 -49 0
3 -37 -58 0
3 -46 -40 0
3 -46 -58 0
3 -55 -40 0
3 -55 -49 0
4 -37 -50 0
4 -37 -59 0
4 -46 -41 0
4 -46 -59 0
4 -55 -41 0
4 -55 -50 0
5 -37 -51 0
5 -37 -60 0
5 -46 -42 0
5 -46 -60 0
5 -55 -42 0
5 -55 -51 0
6 -37 -52 0
6 -37 -61 0
6 -46 -43 0
6 -46 -61 0
6 -55 -43 0
6 -55 -52 0
7 -37 -53 0
7 -37 -62 0
7 -46 -44 0
7 -46 -62 0
7 -55 -44 0
7 -55 -53 0
8 -37 -54 0
8 -37 -63 0
8 -46 -45 0
8 -46 -63 0
8 -55 -45 0
8 -55 -54 0
9 -38 -48 0
9 -38 -57 0
9 -47 -39 0
9 -47 -57 0
9 -56 -39 0
9 -56 -48 0
10 -38 -49 0
10 -38 -58 0
10 -47 -40 0
10 -47 -58 0
10 -56 -40 0
10 -56 -49 0
11 -38 -50 0
11 -38 -59 0
11 -47 -41 0
11 -47 -59 0
11 -56 -41 0
11 -56 -50 0
12 -38 -51 0
12 -38 -60 0
12 -47 -42 0
12 -47 -60 0
12 -56 -42 0
12 -56 -51 0
13 -38 -52 0
13 -38 -61 0
13 -47 -43 0
13 -47 -61 0
13 -56 -43 0
13 -56 -52 0
14 -38 -53 0
14 -38 -62 0
14 -47 -44 0
14 -47 -62 0
14 -56 -44 0
14 -56 -53 0
15 -38 -54 0
15 -38 -63 0
15 -47 -45 0
15 -47 -63 0
15 -56 -45 0
15 -56 -54 0
16 -39 -49 0
16 -39 -58 0
16 -48 -40 0
16 -48 -58 0
16 -57 -40 0
16 -57 -49 0
17 -39 -50 0
17 -39 -59 0
17 -48 -41 0
17 -48 -59 0
17 -57 -41 0
17 -57 -50 0
18 -39 -51 0
18 -39 -60 0
18 -48 -42 0
18 -48 -60 0
18 -57 -42 0
18 -57 -51 0
19 -39 -52 0
19 -39 -61 0
19 -48 -43 0
19 -48 -61 0
19 -57 -43 0
19 -57 -52 0
20 -39 -53 0
20 -39 -62 0
20 -48 -44 0
20 -48 -62 0
20 -57 -44 0
20 -57 -53 0
21 -39 -54 0
21 -39 -63 0
21 -48 -45 0
21 -48 -63 0
21 -57 -45 0
21 -57 -54 0
22 -40 -50 0
22 -40 -59 0
22 -49 -41 0
22 -49 -59 0
22 -58 -41 0
22 -58 -50 0
23 -40 -51 0
23 -40 -60 0
23 -49 -42 0
23 -49 -60 0
23 -58 -42 0
23 -58 -51 0
24 -40 -52 0
24 -40 -61 0
24 -49 -43 0
24 -49 -61 0
24 -58 -43 0
24 -58 -52 0
25 -40 -53 0
25 -40 -62 0
25 -49 -44 0
25 -49 -62 0
25 -58 -44 0
25 -58 -53 0
26 -40 -54 0
26 -40 -63 0
26 -49 -45 0
26 -49 -63 0
26 -58 -45 0
26 -58 -54 0
27 -41 -51 0
27 -41 -60 0
27 -50 -42 0
27 -50 -60 0
27 -59 -42 0
27 -59 -51 0
28 -41 -52 0
28 -41 -61 0
28 -50 -43 0
28 -50 -61 0
28 -59 -43 0
28 -59 -52 0
29 -41 -53 0
29 -41 -62 0
29 -50 -44 0
29 -50 -62 0
29 -59 -44 0
29 -59 -53 0
30 -41 -54 0
30 -41 -63 0
30 -50 -45 0
30 -50 -63 0
30 -59 -45 0
30 -59 -54 0
31 -42 -52 0
31 -42 -61 0
31 -51 -43 0
31 -51 -61 0
31 -60 -43 0
31 -60 -52 0
32 -42 -53 0
32 -42 -62 0
32 -51 -44 0
32 -51 -62 0
32 -60 -44 0
32 -60 -53 0
33 -42 -54 0
33 -42 -63 0
33 -51 -45 0
33 -51 -63 0
33 -60 -45 0
33 -60 -54 0
34 -43 -53 0
34 -43 -62 0
34 -52 -44 0
34 -52 -62 0
34 -61 -44 0
34 -61 -53 0
35 -43 -54 0
35 -43 -63 0
35 -52 -45 0
35 -52 -63 0
35 -61 -45 0
35 -61 -54 0
36 -44 -54 0
36 -44 -63 0
36 -53 -45 0
36 -53 -63 0
36 -62 -45 0
36 -62 -54 0
-64 -65 0
-64 -66 0
-65 -66 0
64 65 66 0
-67 -68 0
-67 -69 0
-68 -69 0
67 68 69 0
-70 -71 0
-70 -72 0
-71 -72 0
70 71 72 0
-73 -74 0
-73 -75 0
-74 -75 0
73 74 75 0
-76 -77 0
-76 -78 0
-77 -78 0
76 77 78 0
-79 -80 0
-79 -81 0
-80 -81 0
79 80 81 0
-82 -83 0
-82 -84 0
-83 -84 0
82 83 84 0
-85 -86 0
-85 -87 0
-86 -87 0
85 86 87 0
-88 -89 0
-88 -90 0
-89 -90 0
88 89 90 0
-1 -64 -67 0
-1 -65 -68 0
-1 -66 -69 0
-2 -64 -70 0
-2 -65 -71 0
-2 -66 -72 0
-3 -64 -73 0
-3 -65 -74 0
-3 -66 -75 0
-4 -64 -76 0
-4 -65 -77 0
-4 -66 -78 0
-5 -64 -79 0
-5 -65 -80 0
-5 -66 -81 0
-6 -64 -82 0
-6 -65 -83 0
-6 -66 -84 0
-7 -64 -85 0
-7 -65 -86 0
-7 -66 -87 0
-8 -64 -88 0
-8 -65 -89 0
-8 -66 -90 0
-9 -67 -70 0
-9 -68 -71 0
-9 -69 -72 0
-10 -67 -73 0
-10 -68 -74 0
-10 -69 -75 0
-11 -67 -76 0
-11 -68 -77 0
-11 -69 -78 0
-12 -67 -79 0
-12 -68 -80 0
-12 -69 -81 0
-13 -67 -82 0
-13 -68 -83 0
-13 -69 -84 0
-14 -67 -85 0
-14 -68 -86 0
-14 -69 -87 0
-15 -67 -88 0
-15 -68 -89 0
-15 -69 -90 0
-16 -70 -73 0
-16 -71 -74 0
-16 -72 -75 0
-17 -70 -76 0
-17 -71 -77 0
-17 -72 -78 0
-18 -70 -79 0
-18 -71 -80 0
-18 -72 -81 0
-19 -70 -82 0
-19 -71 -83 0
-19 -72 -84 0
-20 -70 -85 0
-20 -71 -86 0
-20 -72 -87 0
-21 -70 -88 0
-21 -71 -89 0
-21 -72 -90 0
-22 -73 -76 0
-22 -74 -77 0
-22 -75 -78 0
-23 -73 -79 0
-23 -74 -80 0
-23 -75 -81 0
-24 -73 -82 0
-24 -74 -83 0
-24 -75 -84 0
-25 -73 -85 0
-25 -74 -86 0
-25 -75 -87 0
-26 -73 -88 0
-26 -74 -89 0
-26 -75 -90 0
-27 -76 -79 0
-27 -77 -80 0
-27 -78 -81 0
-28 -76 -82 0
-28 -77 -83 0
-28 -78 -84 0
-29 -76 -85 0
-29 -77 -86 0
-29 -78 -87 0
-30 -76 -88 0
-30 -77 -89 0
-30 -78 -90 0
-31 -79 -82 0
-31 -80 -83 0
-31 -81 -84 0
-32 -79 -85 0
-32 -80 -86 0
-32 -81 -87 0
-33 -79 -88 0
-33 -80 -89 0
-33 -81 -90 0
-34 -82 -85 0
-34 -83 -86 0
-34 -84 -87 0
-35 -82 -88 0
-35 -83 -89 0
-35 -84 -90 0
-36 -85 -88 0
-36 -86 -89 0
-36 -87 -90 0